n_jobs = 20;
n_machines = 5;

job_task_duration = array2d(jobs, tasks, [
	54, 79, 16, 66, 58,
	83, 3, 89, 58, 56,
	15, 11, 49, 31, 20,
	71, 99, 15, 68, 85,
	77, 56, 89, 78, 53,
	36, 70, 45, 91, 35,
	53, 99, 60, 13, 53,
	38, 60, 23, 59, 41,
	27, 5, 57, 49, 69,
	87, 56, 64, 85, 13,
	76, 3, 7, 85, 86,
	91, 61, 1, 9, 72,
	14, 73, 63, 39, 8,
	29, 75, 41, 41, 49,
	12, 47, 63, 56, 47,
	77, 14, 47, 40, 87,
	32, 21, 26, 54, 58,
	87, 86, 75, 77, 18,
	68, 5, 77, 51, 68,
	94, 77, 40, 31, 28
]);

due_date_jobs = [767, 770, 328, 1239, 591, 592, 771, 503, 539, 805, 1025, 602, 525, 482, 823, 568, 533, 743, 495, 607];